
  32    4
  10   10   10   10

   0   0   0   0   0   7 2 26 27 28 29 30 31 
   5   1   0   1   1   3 25 24 3 
   8   0   1   3   5   2 23 4 
   2   0   4   4   3   2 22 5 
   3   0   6   5   6   1 6 
   1   4   3   3   0   1 7 
   5   3   4   0   5   2 21 8 
   9   7   5   0   1   3 20 19 9 
   4   5   4   0   2   1 10 
   9   3   2   5   0   1 11 
  10   3   0   6   3   3 18 17 12 
   3   5   8   0   4   1 13 
   6   3   0   2   2   1 14 
   2   5   0   2   3   1 15 
   6   4   5   9   0   1 16 
   7   1   2   4   0   1 32
   6   5   3   0   4   1 32
   7   6   7   0   2   1 32
   2   3   3   6   0   1 32
   1   0   3   4   5   1 32
   1   0   6   2   5   1 32
   2   4   4   0   6   1 32
   4   5   0   3   3   1 32
   5   3   5   2   0   1 32
   1   4   0   6   5   1 32
   2   7   0   1   4   1 32
   8   3   0   2   4   1 32
   6   0   1   9   3   1 32
   6   4   4   0   8   1 32
   2   4   0   5   8   1 32
   2   4   0   4   4   1 32
   0   0   0   0   0   0 
